NAME: S051D3_25
COMMENT: 975.76
VEHICLE: 15
TIME: 58.9709
DIMENSION: 51
CAPACITY: 160
DELIVERY_SECTION
0 0 0
1 1 16
2 1 1.6
3 1 1.6
4 1 0.8
5 2 16
6 2 8
7 2 1.6
8 2 1.4
9 3 16
10 3 8
11 3 1.6
12 3 1.6
13 3 1.6
14 3 1.2
15 4 40
16 4 16
17 4 8
18 4 1.6
19 4 1.6
20 4 1.6
21 4 1.6
22 4 0.6
23 5 16
24 5 1.6
25 5 1.6
26 5 0.8
27 6 16
28 6 8
29 6 1.6
30 6 1.6
31 6 1.6
32 6 1.6
33 6 0.6
34 7 16
35 7 8
36 7 1.6
37 7 1.6
38 7 1.6
39 7 1.6
40 7 0.6
41 8 40
42 8 8
43 8 1.6
44 8 1.4
45 9 16
46 9 1.6
47 9 1.6
48 9 0.8
49 10 40
50 10 16
51 11 16
52 11 8
53 11 1.6
54 11 1.6
55 11 1.6
56 11 1.6
57 11 0.6
58 12 16
59 12 8
60 12 1
61 13 16
62 13 1.6
63 13 1.6
64 13 0.8
65 14 40
66 14 16
67 14 16
68 14 1.6
69 14 0.4
70 15 16
71 15 8
72 15 1.6
73 15 1.6
74 15 1.6
75 15 0.2
76 16 16
77 16 16
78 17 16
79 17 1.6
80 17 1.6
81 17 0.8
82 18 40
83 18 16
84 18 16
85 18 1.6
86 18 1.6
87 18 1.6
88 18 1.6
89 18 0.6
90 19 16
91 19 8
92 19 1
93 20 40
94 20 8
95 20 1.6
96 20 1.6
97 20 1.6
98 20 1.2
99 21 16
100 21 1.6
101 21 1.6
102 21 1.6
103 21 0.2
104 22 40
105 22 16
106 22 16
107 23 16
108 23 1.6
109 23 0.4
110 24 40
111 24 16
112 24 8
113 24 1.6
114 24 1.6
115 24 1.6
116 24 1.2
117 25 16
118 25 1.6
119 25 1.6
120 25 1.6
121 25 1.6
122 25 0.6
123 26 40
124 26 8
125 26 1.6
126 26 1.6
127 26 0.8
128 27 16
129 27 1.6
130 27 1.6
131 27 1.6
132 27 0.2
133 28 40
134 28 16
135 28 16
136 28 1.6
137 28 1.6
138 28 1.6
139 28 1.2
140 29 16
141 29 8
142 29 1
143 30 16
144 30 8
145 30 1.6
146 30 0.4
147 31 16
148 31 16
149 32 40
150 32 16
151 32 16
152 32 1.6
153 32 1.6
154 32 1.6
155 32 1.6
156 32 0.6
157 33 16
158 33 8
159 33 1.6
160 33 1.6
161 33 0.8
162 34 16
163 34 16
164 34 1
165 35 40
166 35 1.6
167 35 1.4
168 36 40
169 36 16
170 36 16
171 36 1.6
172 36 1.6
173 36 0.8
174 37 16
175 37 16
176 38 40
177 38 16
178 38 1
179 39 40
180 39 16
181 40 40
182 40 16
183 40 8
184 40 1.6
185 40 1.6
186 40 1.6
187 40 0.2
188 41 16
189 41 16
190 41 1.6
191 41 1.6
192 41 1.6
193 41 0.2
194 42 40
195 42 16
196 42 16
197 43 40
198 43 16
199 43 8
200 43 1.6
201 43 1.6
202 43 0.8
203 44 40
204 44 16
205 44 1.6
206 44 1.6
207 44 1.6
208 44 0.2
209 45 40
210 45 1.6
211 45 1.4
212 46 40
213 46 16
214 46 16
215 46 1.6
216 46 1.6
217 46 1.6
218 46 1.6
219 46 0.6
220 47 40
221 47 16
222 47 16
223 47 1.6
224 47 1.6
225 47 0.8
226 48 40
227 48 8
228 48 1.6
229 48 1.6
230 48 1.6
231 48 0.2
232 49 40
233 49 8
234 49 1.6
235 49 1.4
236 50 40
237 50 16
238 50 16
239 50 1.6
240 50 1.6
241 50 1.6
242 50 1.2
PICKUP_SECTION
NODE_SECTION
30 40

37 52

49 49

52 64

20 26

40 30

21 47

17 63

31 62

52 33

51 21

42 41

31 32

 5 25

12 42

36 16

52 41

27 23

17 33

13 13

57 58

62 42

42 57

16 57
 
8 52

 7 38

27 68

30 48

43 67

58 48

58 27

37 69

38 46

46 10

61 33

62 63

63 69

32 22

45 35

59 15

 5  6

10 17

21 10

 5 64

30 15

39 10

32 39

25 32

25 55

48 28

56 37
DISTANCE_SECTION
DEPOT_SECTION
0
EOF